
Welcome to IBM(R) ILOG(R) CPLEX(R) Interactive Optimizer 22.1.1.0
  with Simplex, Mixed Integer & Barrier Optimizers
5725-A06 5725-A29 5724-Y48 5724-Y49 5724-Y54 5724-Y55 5655-Y21
Copyright IBM Corp. 1988, 2022.  All Rights Reserved.

Type 'help' for a list of available commands.
Type 'help' followed by a command name for more
information on commands.

CPLEX> Selected objective sense:  MINIMIZE
Selected objective  name:  00000000
Selected RHS        name:  RHS1
Selected bound      name:  BOUND
Problem 'ee.mps' read.
Read time = 0.03 sec. (3.14 ticks)
CPLEX> New value for time limit in seconds: 7200
CPLEX> New value for parallel optimization mode: -1
CPLEX> New value for default parallel thread count: 40
CPLEX> New value for mixed integer optimality gap tolerance: 1e-13
CPLEX> Version identifier: 22.1.1.0 | 2022-11-28 | 9160aff4d
CPXPARAM_Threads                                 40
CPXPARAM_Parallel                                -1
CPXPARAM_TimeLimit                               7200
CPXPARAM_MIP_Tolerances_MIPGap                   1e-13
Found incumbent of value 0.000000 after 0.00 sec. (0.31 ticks)
Tried aggregator 2 times.
MIP Presolve eliminated 182 rows and 2745 columns.
MIP Presolve modified 5862 coefficients.
Aggregator did 713 substitutions.
Reduced MIP has 3624 rows, 7744 columns, and 28665 nonzeros.
Reduced MIP has 7744 binaries, 0 generals, 0 SOSs, and 0 indicators.
Presolve time = 0.07 sec. (68.80 ticks)
Probing time = 0.03 sec. (5.68 ticks)
Tried aggregator 1 time.
Detecting symmetries...
Reduced MIP has 3624 rows, 7744 columns, and 28665 nonzeros.
Reduced MIP has 7744 binaries, 0 generals, 0 SOSs, and 0 indicators.
Presolve time = 0.02 sec. (21.96 ticks)
Probing time = 0.02 sec. (5.48 ticks)
Clique table members: 18557.
MIP emphasis: balance optimality and feasibility.
MIP search method: dynamic search.
Parallel mode: opportunistic, using up to 40 threads.
Root relaxation solution time = 0.11 sec. (93.89 ticks)

        Nodes                                         Cuts/
   Node  Left     Objective  IInf  Best Integer    Best Bound    ItCnt     Gap

*     0+    0                            0.0000  -1.31000e+13              --- 
*     0+    0                      -5.39000e+12  -1.31000e+13           143.04%
*     0+    0                      -5.50000e+12  -1.31000e+13           138.18%
      0     0  -1.30900e+13   136  -5.50000e+12  -1.30900e+13     1852  138.00%
*     0+    0                      -1.30900e+13  -1.30900e+13             0.00%
      0     0  -1.30900e+13   198  -1.30900e+13     Cuts: 123     2532    0.00%
*     0+    0                      -1.30900e+13  -1.30900e+13             0.00%
      0     0  -1.30900e+13   254  -1.30900e+13     Cuts: 136     2935    0.00%
*     0+    0                      -1.30900e+13  -1.30900e+13             0.00%
*     0+    0                      -1.30900e+13  -1.30900e+13             0.00%
      0     0  -1.00000e+75     0  -1.30900e+13  -1.30900e+13     2935    0.00%
      0     2  -1.30900e+13   254  -1.30900e+13  -1.30900e+13     2935    0.00%
Elapsed time = 2.68 sec. (1264.33 ticks, tree = 0.02 MB, solutions = 24)
     70    21  -1.30900e+13   214  -1.30900e+13  -1.30900e+13     8820    0.00%
    285    81  -1.30900e+13    56  -1.30900e+13  -1.30900e+13    38334    0.00%
    630    88  -1.30900e+13   135  -1.30900e+13  -1.30900e+13    46172    0.00%
   1158    79  -1.30900e+13    58  -1.30900e+13  -1.30900e+13    42687    0.00%
   1544   372    infeasible        -1.30900e+13  -1.30900e+13   253958    0.00%
   1834   127  -1.30900e+13   113  -1.30900e+13  -1.30900e+13    89285    0.00%
   2074   154  -1.30900e+13   182  -1.30900e+13  -1.30900e+13   121843    0.00%
   2303   533        cutoff        -1.30900e+13  -1.30900e+13   354819    0.00%
   2652   257  -1.30900e+13   182  -1.30900e+13  -1.30900e+13   186990    0.00%
   3512   565  -1.30900e+13    73  -1.30900e+13  -1.30900e+13   387666    0.00%
Elapsed time = 8.97 sec. (4368.65 ticks, tree = 1.43 MB, solutions = 28)
   4629   695        cutoff        -1.30900e+13  -1.30900e+13   533344    0.00%
   5948   865  -1.30900e+13   102  -1.30900e+13  -1.30900e+13   644948    0.00%
   7113  1252        cutoff        -1.30900e+13  -1.30900e+13   876233    0.00%
   8046  1644    infeasible        -1.30900e+13  -1.30900e+13  1185384    0.00%
   8999  1789        cutoff        -1.30900e+13  -1.30900e+13  1442738    0.00%
   9731  1795  -1.30900e+13   151  -1.30900e+13  -1.30900e+13  1441499    0.00%
  10368  1808        cutoff        -1.30900e+13  -1.30900e+13  1521152    0.00%
  10901  1875        cutoff        -1.30900e+13  -1.30900e+13  1797591    0.00%
  11522  1835        cutoff        -1.30900e+13  -1.30900e+13  2100330    0.00%
  12160  1856  -1.30900e+13    99  -1.30900e+13  -1.30900e+13  2305705    0.00%
Elapsed time = 22.25 sec. (13909.86 ticks, tree = 7.87 MB, solutions = 29)
  12762  1850  -1.30900e+13   122  -1.30900e+13  -1.30900e+13  2183114    0.00%
  13196  1849        cutoff        -1.30900e+13  -1.30900e+13  2300370    0.00%
  13485  1842  -1.30900e+13   156  -1.30900e+13  -1.30900e+13  2430017    0.00%

Performing restart 1

Repeating presolve.
Tried aggregator 2 times.
MIP Presolve eliminated 29 rows and 24 columns.
MIP Presolve modified 1777 coefficients.
Aggregator did 5 substitutions.
Reduced MIP has 3514 rows, 7715 columns, and 27971 nonzeros.
Reduced MIP has 7715 binaries, 0 generals, 0 SOSs, and 0 indicators.
Presolve time = 0.04 sec. (40.64 ticks)
Tried aggregator 2 times.
MIP Presolve eliminated 12 rows and 41 columns.
MIP Presolve modified 28 coefficients.
Aggregator did 17 substitutions.
Reduced MIP has 3485 rows, 7651 columns, and 27745 nonzeros.
Reduced MIP has 7651 binaries, 0 generals, 0 SOSs, and 0 indicators.
Presolve time = 0.05 sec. (52.29 ticks)
Represolve time = 0.25 sec. (173.51 ticks)
  13507     0  -1.30900e+13   279  -1.30900e+13      Cuts: 20  2813136    0.00%
  13507     0  -1.30900e+13   275  -1.30900e+13      Cuts: 37  2813838    0.00%
  13507     0  -1.30900e+13   301  -1.30900e+13      Cuts: 40  2814441    0.00%
  13507     0  -1.30900e+13   367  -1.30900e+13      Cuts: 27  2814619    0.00%
  13507     0  -1.30900e+13   330  -1.30900e+13      Cuts: 70  2814935    0.00%
  13507     0  -1.30900e+13   284  -1.30900e+13      Cuts: 45  2815279    0.00%
  13507     0  -1.30900e+13   287  -1.30900e+13      Cuts: 52  2815743    0.00%
  13507     0  -1.30900e+13   291  -1.30900e+13      Cuts: 44  2815827    0.00%
  13507     0  -1.30900e+13   304  -1.30900e+13      Cuts: 16  2815917    0.00%
  13507     0  -1.30900e+13   318  -1.30900e+13      Cuts: 14  2815951    0.00%
  13507     3        cutoff        -1.30900e+13  -1.30900e+13  2824338    0.00%
  13802     3        cutoff        -1.30900e+13  -1.30900e+13  2821250    0.00%

GUB cover cuts applied:  5
Clique cuts applied:  15
Cover cuts applied:  216
Flow cuts applied:  3
Mixed integer rounding cuts applied:  9
Zero-half cuts applied:  32
Lift and project cuts applied:  1
Gomory fractional cuts applied:  19

Root node processing (before b&c):
  Real time             =    1.53 sec. (1248.78 ticks)
Parallel b&c, 40 threads:
  Real time             =   29.79 sec. (21577.03 ticks)
  Sync time (average)   =    3.08 sec.
  Wait time (average)   =    0.13 sec.
                          ------------
Total (root+branch&cut) =   31.32 sec. (22825.82 ticks)

Solution pool: 43 solutions saved.

MIP - Integer optimal solution:  Objective = -1.3089999090e+13
Solution time =   31.47 sec.  Iterations = 2843209  Nodes = 13832
Deterministic time = 22825.85 ticks  (725.23 ticks/sec)

CPLEX> Solution 'p44' written to file 'ee.sol'.
CPLEX> 